LAMMPS Oil Droplet V3 - Physical Structure

1200 atoms
1100 bonds

3 atom types
1 bond types

0 200 xlo xhi
0 600 ylo yhi
0 360 zlo zhi

Atoms

1 1 3 0.0 83.218 319.981 194.401
2 1 3 0.0 83.634 320.284 192.984
3 1 3 0.0 84.155 320.588 191.567
4 1 3 0.0 84.571 320.891 190.149
5 1 3 0.0 85.092 321.194 188.732
6 1 3 0.0 85.508 321.497 187.315
7 1 3 0.0 86.028 321.801 185.897
8 1 3 0.0 86.445 322.104 184.480
9 1 3 0.0 86.965 322.407 183.063
10 1 3 0.0 87.381 322.710 181.645
11 1 3 0.0 87.902 323.014 180.228
12 1 3 0.0 88.318 323.317 178.811
13 2 3 0.0 116.206 284.778 163.863
14 2 3 0.0 115.966 283.657 164.875
15 2 3 0.0 115.665 282.536 165.887
16 2 3 0.0 115.424 281.415 166.899
17 2 3 0.0 115.124 280.293 167.911
18 2 3 0.0 114.883 279.172 168.923
19 2 3 0.0 114.582 278.051 169.935
20 2 3 0.0 114.342 276.930 170.947
21 2 3 0.0 114.041 275.809 171.959
22 2 3 0.0 113.801 274.687 172.971
23 2 3 0.0 113.500 273.566 173.983
24 2 3 0.0 113.259 272.445 174.995
25 3 3 0.0 114.984 306.000 191.220
26 3 3 0.0 114.892 305.549 192.688
27 3 3 0.0 114.777 305.099 194.156
28 3 3 0.0 114.684 304.648 195.624
29 3 3 0.0 114.569 304.197 197.092
30 3 3 0.0 114.477 303.746 198.560
31 3 3 0.0 114.361 303.296 200.028
32 3 3 0.0 114.269 302.845 201.496
33 3 3 0.0 114.154 302.394 202.964
34 3 3 0.0 114.061 301.943 204.432
35 3 3 0.0 113.946 301.493 205.900
36 3 3 0.0 113.854 301.042 207.368
37 4 3 0.0 109.292 303.553 187.252
38 4 3 0.0 110.237 302.625 186.912
39 4 3 0.0 111.417 301.697 186.571
40 4 3 0.0 112.362 300.769 186.231
41 4 3 0.0 113.543 299.841 185.890
42 4 3 0.0 114.488 298.913 185.550
43 4 3 0.0 115.669 297.985 185.209
44 4 3 0.0 116.613 297.057 184.869
45 4 3 0.0 117.794 296.129 184.528
46 4 3 0.0 118.739 295.201 184.188
47 4 3 0.0 119.920 294.273 183.847
48 4 3 0.0 120.864 293.345 183.507
49 5 3 0.0 109.525 288.251 191.590
50 5 3 0.0 109.298 289.307 190.506
51 5 3 0.0 109.014 290.363 189.422
52 5 3 0.0 108.787 291.420 188.338
53 5 3 0.0 108.504 292.476 187.254
54 5 3 0.0 108.277 293.532 186.170
55 5 3 0.0 107.993 294.589 185.086
56 5 3 0.0 107.766 295.645 184.001
57 5 3 0.0 107.482 296.701 182.917
58 5 3 0.0 107.255 297.758 181.833
59 5 3 0.0 106.972 298.814 180.749
60 5 3 0.0 106.745 299.870 179.665
61 6 3 0.0 110.371 281.331 162.501
62 6 3 0.0 110.322 280.803 161.055
63 6 3 0.0 110.260 280.276 159.610
64 6 3 0.0 110.210 279.749 158.164
65 6 3 0.0 110.149 279.221 156.719
66 6 3 0.0 110.099 278.694 155.273
67 6 3 0.0 110.037 278.166 153.828
68 6 3 0.0 109.988 277.639 152.382
69 6 3 0.0 109.926 277.112 150.937
70 6 3 0.0 109.877 276.584 149.491
71 6 3 0.0 109.815 276.057 148.045
72 6 3 0.0 109.765 275.529 146.600
73 7 3 0.0 86.450 307.356 197.216
74 7 3 0.0 87.309 306.815 198.178
75 7 3 0.0 88.383 306.274 199.140
76 7 3 0.0 89.242 305.733 200.102
77 7 3 0.0 90.316 305.192 201.064
78 7 3 0.0 91.176 304.652 202.026
79 7 3 0.0 92.250 304.111 202.988
80 7 3 0.0 93.109 303.570 203.950
81 7 3 0.0 94.183 303.029 204.912
82 7 3 0.0 95.042 302.488 205.874
83 7 3 0.0 96.116 301.948 206.836
84 7 3 0.0 96.975 301.407 207.798
85 8 3 0.0 88.620 319.108 167.343
86 8 3 0.0 88.141 318.356 166.140
87 8 3 0.0 87.542 317.604 164.937
88 8 3 0.0 87.063 316.852 163.734
89 8 3 0.0 86.463 316.100 162.531
90 8 3 0.0 85.984 315.349 161.328
91 8 3 0.0 85.385 314.597 160.125
92 8 3 0.0 84.906 313.845 158.922
93 8 3 0.0 84.306 313.093 157.719
94 8 3 0.0 83.827 312.341 156.516
95 8 3 0.0 83.228 311.589 155.313
96 8 3 0.0 82.749 310.837 154.110
97 9 3 0.0 81.835 301.699 198.582
98 9 3 0.0 81.807 300.717 197.396
99 9 3 0.0 81.773 299.735 196.211
100 9 3 0.0 81.745 298.753 195.025
101 9 3 0.0 81.711 297.771 193.839
102 9 3 0.0 81.684 296.789 192.653
103 9 3 0.0 81.649 295.807 191.468
104 9 3 0.0 81.622 294.825 190.282
105 9 3 0.0 81.588 293.843 189.096
106 9 3 0.0 81.560 292.861 187.910
107 9 3 0.0 81.526 291.879 186.725
108 9 3 0.0 81.498 290.897 185.539
109 10 3 0.0 84.580 282.735 189.555
110 10 3 0.0 84.812 283.091 188.085
111 10 3 0.0 85.103 283.446 186.615
112 10 3 0.0 85.335 283.801 185.145
113 10 3 0.0 85.625 284.157 183.675
114 10 3 0.0 85.858 284.512 182.205
115 10 3 0.0 86.148 284.867 180.735
116 10 3 0.0 86.380 285.223 179.265
117 10 3 0.0 86.671 285.578 177.795
118 10 3 0.0 86.903 285.933 176.325
119 10 3 0.0 87.193 286.289 174.855
120 10 3 0.0 87.426 286.644 173.385
121 11 3 0.0 107.905 297.748 192.322
122 11 3 0.0 109.056 297.803 191.778
123 11 3 0.0 110.496 297.858 191.233
124 11 3 0.0 111.647 297.912 190.689
125 11 3 0.0 113.087 297.967 190.144
126 11 3 0.0 114.238 298.021 189.599
127 11 3 0.0 115.678 298.076 189.055
128 11 3 0.0 116.829 298.130 188.510
129 11 3 0.0 118.269 298.185 187.966
130 11 3 0.0 119.420 298.239 187.421
131 11 3 0.0 120.860 298.294 186.877
132 11 3 0.0 122.011 298.348 186.332
133 12 3 0.0 99.442 297.310 196.957
134 12 3 0.0 99.345 297.095 198.477
135 12 3 0.0 99.222 296.880 199.997
136 12 3 0.0 99.124 296.665 201.517
137 12 3 0.0 99.002 296.449 203.037
138 12 3 0.0 98.904 296.234 204.557
139 12 3 0.0 98.782 296.019 206.077
140 12 3 0.0 98.684 295.804 207.597
141 12 3 0.0 98.562 295.589 209.117
142 12 3 0.0 98.464 295.374 210.636
143 12 3 0.0 98.341 295.159 212.156
144 12 3 0.0 98.243 294.943 213.676
145 13 3 0.0 82.102 284.775 173.854
146 13 3 0.0 83.227 284.400 173.352
147 13 3 0.0 84.634 284.024 172.850
148 13 3 0.0 85.759 283.649 172.348
149 13 3 0.0 87.166 283.273 171.847
150 13 3 0.0 88.291 282.897 171.345
151 13 3 0.0 89.698 282.522 170.843
152 13 3 0.0 90.823 282.146 170.342
153 13 3 0.0 92.230 281.771 169.840
154 13 3 0.0 93.355 281.395 169.338
155 13 3 0.0 94.762 281.019 168.836
156 13 3 0.0 95.887 280.644 168.335
157 14 3 0.0 110.446 316.183 185.933
158 14 3 0.0 111.254 317.184 186.525
159 14 3 0.0 112.264 318.184 187.117
160 14 3 0.0 113.072 319.185 187.709
161 14 3 0.0 114.082 320.185 188.301
162 14 3 0.0 114.890 321.186 188.892
163 14 3 0.0 115.900 322.187 189.484
164 14 3 0.0 116.708 323.187 190.076
165 14 3 0.0 117.719 324.188 190.668
166 14 3 0.0 118.527 325.188 191.259
167 14 3 0.0 119.537 326.189 191.851
168 14 3 0.0 120.345 327.189 192.443
169 15 3 0.0 92.651 298.362 160.137
170 15 3 0.0 92.083 298.828 158.853
171 15 3 0.0 91.372 299.294 157.569
172 15 3 0.0 90.803 299.760 156.285
173 15 3 0.0 90.092 300.227 155.001
174 15 3 0.0 89.524 300.693 153.717
175 15 3 0.0 88.813 301.159 152.432
176 15 3 0.0 88.244 301.625 151.148
177 15 3 0.0 87.534 302.092 149.864
178 15 3 0.0 86.965 302.558 148.580
179 15 3 0.0 86.254 303.024 147.296
180 15 3 0.0 85.685 303.490 146.012
181 16 3 0.0 103.206 315.463 181.513
182 16 3 0.0 103.449 314.974 180.085
183 16 3 0.0 103.752 314.485 178.657
184 16 3 0.0 103.995 313.996 177.228
185 16 3 0.0 104.299 313.507 175.800
186 16 3 0.0 104.542 313.018 174.371
187 16 3 0.0 104.846 312.529 172.943
188 16 3 0.0 105.089 312.041 171.514
189 16 3 0.0 105.392 311.552 170.086
190 16 3 0.0 105.635 311.063 168.658
191 16 3 0.0 105.939 310.574 167.229
192 16 3 0.0 106.182 310.085 165.801
193 17 3 0.0 93.342 315.965 185.002
194 17 3 0.0 92.259 316.072 185.728
195 17 3 0.0 90.905 316.180 186.454
196 17 3 0.0 89.822 316.287 187.179
197 17 3 0.0 88.468 316.394 187.905
198 17 3 0.0 87.384 316.501 188.631
199 17 3 0.0 86.030 316.609 189.357
200 17 3 0.0 84.947 316.716 190.083
201 17 3 0.0 83.593 316.823 190.808
202 17 3 0.0 82.510 316.931 191.534
203 17 3 0.0 81.156 317.038 192.260
204 17 3 0.0 80.073 317.145 192.986
205 18 3 0.0 85.577 299.280 197.159
206 18 3 0.0 85.611 298.445 198.452
207 18 3 0.0 85.654 297.609 199.744
208 18 3 0.0 85.688 296.773 201.037
209 18 3 0.0 85.731 295.938 202.330
210 18 3 0.0 85.765 295.102 203.623
211 18 3 0.0 85.808 294.266 204.916
212 18 3 0.0 85.843 293.430 206.208
213 18 3 0.0 85.885 292.595 207.501
214 18 3 0.0 85.920 291.759 208.794
215 18 3 0.0 85.963 290.923 210.087
216 18 3 0.0 85.997 290.088 211.380
217 19 3 0.0 94.004 289.152 185.366
218 19 3 0.0 93.225 289.261 186.554
219 19 3 0.0 92.250 289.369 187.741
220 19 3 0.0 91.470 289.478 188.928
221 19 3 0.0 90.496 289.587 190.116
222 19 3 0.0 89.716 289.696 191.303
223 19 3 0.0 88.741 289.805 192.490
224 19 3 0.0 87.961 289.913 193.678
225 19 3 0.0 86.987 290.022 194.865
226 19 3 0.0 86.207 290.131 196.052
227 19 3 0.0 85.232 290.240 197.240
228 19 3 0.0 84.453 290.348 198.427
229 20 3 0.0 90.408 313.660 196.924
230 20 3 0.0 90.110 313.745 195.432
231 20 3 0.0 89.737 313.830 193.940
232 20 3 0.0 89.439 313.915 192.449
233 20 3 0.0 89.066 314.000 190.957
234 20 3 0.0 88.768 314.085 189.465
235 20 3 0.0 88.395 314.170 187.973
236 20 3 0.0 88.096 314.255 186.482
237 20 3 0.0 87.723 314.340 184.990
238 20 3 0.0 87.425 314.425 183.498
239 20 3 0.0 87.052 314.510 182.006
240 20 3 0.0 86.754 314.595 180.514
241 21 3 0.0 106.134 298.975 174.686
242 21 3 0.0 106.021 297.463 174.434
243 21 3 0.0 105.880 295.950 174.181
244 21 3 0.0 105.767 294.438 173.929
245 21 3 0.0 105.625 292.925 173.677
246 21 3 0.0 105.512 291.412 173.425
247 21 3 0.0 105.371 289.900 173.172
248 21 3 0.0 105.258 288.387 172.920
249 21 3 0.0 105.116 286.875 172.668
250 21 3 0.0 105.003 285.362 172.415
251 21 3 0.0 104.862 283.849 172.163
252 21 3 0.0 104.748 282.337 171.911
253 22 3 0.0 102.361 307.286 185.698
254 22 3 0.0 103.048 308.563 185.627
255 22 3 0.0 103.906 309.840 185.556
256 22 3 0.0 104.592 311.117 185.484
257 22 3 0.0 105.450 312.393 185.413
258 22 3 0.0 106.137 313.670 185.342
259 22 3 0.0 106.995 314.947 185.271
260 22 3 0.0 107.681 316.224 185.199
261 22 3 0.0 108.540 317.501 185.128
262 22 3 0.0 109.226 318.777 185.057
263 22 3 0.0 110.084 320.054 184.986
264 22 3 0.0 110.771 321.331 184.914
265 23 3 0.0 109.568 298.637 192.432
266 23 3 0.0 109.953 299.122 193.812
267 23 3 0.0 110.434 299.606 195.193
268 23 3 0.0 110.819 300.091 196.573
269 23 3 0.0 111.300 300.575 197.953
270 23 3 0.0 111.685 301.060 199.334
271 23 3 0.0 112.166 301.545 200.714
272 23 3 0.0 112.550 302.029 202.095
273 23 3 0.0 113.032 302.514 203.475
274 23 3 0.0 113.416 302.998 204.855
275 23 3 0.0 113.897 303.483 206.236
276 23 3 0.0 114.282 303.967 207.616
277 24 3 0.0 97.722 290.520 192.001
278 24 3 0.0 97.631 290.506 190.465
279 24 3 0.0 97.518 290.492 188.929
280 24 3 0.0 97.428 290.478 187.393
281 24 3 0.0 97.314 290.464 185.858
282 24 3 0.0 97.224 290.450 184.322
283 24 3 0.0 97.111 290.436 182.786
284 24 3 0.0 97.020 290.422 181.250
285 24 3 0.0 96.907 290.408 179.714
286 24 3 0.0 96.817 290.394 178.179
287 24 3 0.0 96.704 290.379 176.643
288 24 3 0.0 96.613 290.365 175.107
289 25 3 0.0 113.811 288.348 162.891
290 25 3 0.0 113.900 289.870 163.093
291 25 3 0.0 114.010 291.393 163.295
292 25 3 0.0 114.098 292.916 163.496
293 25 3 0.0 114.209 294.439 163.698
294 25 3 0.0 114.297 295.961 163.899
295 25 3 0.0 114.407 297.484 164.101
296 25 3 0.0 114.496 299.007 164.302
297 25 3 0.0 114.606 300.530 164.504
298 25 3 0.0 114.694 302.052 164.705
299 25 3 0.0 114.805 303.575 164.907
300 25 3 0.0 114.893 305.098 165.109
301 26 3 0.0 83.009 284.932 193.177
302 26 3 0.0 82.713 285.618 191.848
303 26 3 0.0 82.342 286.304 190.520
304 26 3 0.0 82.046 286.990 189.192
305 26 3 0.0 81.675 287.676 187.864
306 26 3 0.0 81.379 288.362 186.536
307 26 3 0.0 81.008 289.048 185.208
308 26 3 0.0 80.712 289.734 183.880
309 26 3 0.0 80.341 290.420 182.552
310 26 3 0.0 80.045 291.106 181.224
311 26 3 0.0 79.674 291.792 179.896
312 26 3 0.0 79.378 292.478 178.568
313 27 3 0.0 100.959 304.197 178.816
314 27 3 0.0 100.954 304.292 180.353
315 27 3 0.0 100.948 304.387 181.890
316 27 3 0.0 100.942 304.482 183.427
317 27 3 0.0 100.936 304.577 184.964
318 27 3 0.0 100.931 304.672 186.501
319 27 3 0.0 100.924 304.766 188.039
320 27 3 0.0 100.919 304.861 189.576
321 27 3 0.0 100.912 304.956 191.113
322 27 3 0.0 100.907 305.051 192.650
323 27 3 0.0 100.900 305.146 194.187
324 27 3 0.0 100.895 305.241 195.724
325 28 3 0.0 85.452 310.425 177.453
326 28 3 0.0 85.023 311.003 178.777
327 28 3 0.0 84.488 311.580 180.100
328 28 3 0.0 84.060 312.158 181.423
329 28 3 0.0 83.524 312.736 182.746
330 28 3 0.0 83.096 313.313 184.070
331 28 3 0.0 82.560 313.891 185.393
332 28 3 0.0 82.132 314.469 186.716
333 28 3 0.0 81.597 315.046 188.040
334 28 3 0.0 81.168 315.624 189.363
335 28 3 0.0 80.633 316.202 190.686
336 28 3 0.0 80.204 316.779 192.010
337 29 3 0.0 95.059 303.561 195.648
338 29 3 0.0 94.908 303.709 197.169
339 29 3 0.0 94.718 303.857 198.690
340 29 3 0.0 94.566 304.006 200.211
341 29 3 0.0 94.376 304.154 201.732
342 29 3 0.0 94.224 304.302 203.253
343 29 3 0.0 94.035 304.451 204.774
344 29 3 0.0 93.883 304.599 206.295
345 29 3 0.0 93.693 304.748 207.816
346 29 3 0.0 93.541 304.896 209.337
347 29 3 0.0 93.352 305.044 210.858
348 29 3 0.0 93.200 305.193 212.379
349 30 3 0.0 90.978 306.410 168.886
350 30 3 0.0 91.093 306.673 167.376
351 30 3 0.0 91.238 306.937 165.866
352 30 3 0.0 91.354 307.201 164.355
353 30 3 0.0 91.499 307.464 162.845
354 30 3 0.0 91.614 307.728 161.335
355 30 3 0.0 91.759 307.992 159.824
356 30 3 0.0 91.875 308.256 158.314
357 30 3 0.0 92.019 308.519 156.803
358 30 3 0.0 92.135 308.783 155.293
359 30 3 0.0 92.280 309.047 153.783
360 30 3 0.0 92.395 309.310 152.272
361 31 3 0.0 82.716 295.629 170.411
362 31 3 0.0 82.397 296.715 171.428
363 31 3 0.0 81.998 297.801 172.444
364 31 3 0.0 81.679 298.886 173.461
365 31 3 0.0 81.280 299.972 174.478
366 31 3 0.0 80.961 301.058 175.495
367 31 3 0.0 80.563 302.143 176.511
368 31 3 0.0 80.244 303.229 177.528
369 31 3 0.0 79.845 304.315 178.545
370 31 3 0.0 79.526 305.401 179.562
371 31 3 0.0 79.127 306.486 180.578
372 31 3 0.0 78.808 307.572 181.595
373 32 3 0.0 107.694 280.677 187.816
374 32 3 0.0 107.658 280.399 186.302
375 32 3 0.0 107.614 280.122 184.788
376 32 3 0.0 107.578 279.845 183.274
377 32 3 0.0 107.533 279.567 181.760
378 32 3 0.0 107.497 279.290 180.245
379 32 3 0.0 107.452 279.012 178.731
380 32 3 0.0 107.416 278.735 177.217
381 32 3 0.0 107.371 278.458 175.703
382 32 3 0.0 107.335 278.180 174.189
383 32 3 0.0 107.290 277.903 172.675
384 32 3 0.0 107.254 277.625 171.161
385 33 3 0.0 89.702 295.379 171.108
386 33 3 0.0 89.089 296.236 170.083
387 33 3 0.0 88.323 297.093 169.058
388 33 3 0.0 87.711 297.949 168.032
389 33 3 0.0 86.945 298.806 167.007
390 33 3 0.0 86.332 299.663 165.982
391 33 3 0.0 85.566 300.520 164.957
392 33 3 0.0 84.953 301.377 163.932
393 33 3 0.0 84.187 302.233 162.907
394 33 3 0.0 83.574 303.090 161.882
395 33 3 0.0 82.808 303.947 160.857
396 33 3 0.0 82.196 304.804 159.832
397 34 3 0.0 109.764 310.524 196.739
398 34 3 0.0 109.167 311.706 196.094
399 34 3 0.0 108.420 312.888 195.449
400 34 3 0.0 107.823 314.070 194.804
401 34 3 0.0 107.076 315.253 194.159
402 34 3 0.0 106.478 316.435 193.514
403 34 3 0.0 105.732 317.617 192.869
404 34 3 0.0 105.134 318.800 192.224
405 34 3 0.0 104.387 319.982 191.579
406 34 3 0.0 103.790 321.164 190.934
407 34 3 0.0 103.043 322.347 190.289
408 34 3 0.0 102.446 323.529 189.644
409 35 3 0.0 87.931 312.268 169.563
410 35 3 0.0 87.964 313.695 170.142
411 35 3 0.0 88.005 315.122 170.720
412 35 3 0.0 88.037 316.548 171.299
413 35 3 0.0 88.078 317.975 171.878
414 35 3 0.0 88.111 319.401 172.456
415 35 3 0.0 88.152 320.828 173.035
416 35 3 0.0 88.184 322.255 173.614
417 35 3 0.0 88.225 323.681 174.192
418 35 3 0.0 88.258 325.108 174.771
419 35 3 0.0 88.299 326.534 175.350
420 35 3 0.0 88.331 327.961 175.928
421 36 3 0.0 83.735 300.938 188.048
422 36 3 0.0 82.807 300.307 188.840
423 36 3 0.0 81.646 299.676 189.633
424 36 3 0.0 80.718 299.046 190.425
425 36 3 0.0 79.558 298.415 191.217
426 36 3 0.0 78.629 297.785 192.009
427 36 3 0.0 77.469 297.154 192.801
428 36 3 0.0 76.541 296.524 193.594
429 36 3 0.0 75.380 295.893 194.386
430 36 3 0.0 74.452 295.263 195.178
431 36 3 0.0 73.292 294.632 195.970
432 36 3 0.0 72.364 294.001 196.762
433 37 3 0.0 104.065 289.120 191.597
434 37 3 0.0 103.430 289.191 192.915
435 37 3 0.0 102.636 289.263 194.232
436 37 3 0.0 102.001 289.334 195.550
437 37 3 0.0 101.207 289.406 196.867
438 37 3 0.0 100.571 289.477 198.185
439 37 3 0.0 99.777 289.549 199.502
440 37 3 0.0 99.142 289.620 200.820
441 37 3 0.0 98.348 289.691 202.137
442 37 3 0.0 97.712 289.763 203.455
443 37 3 0.0 96.918 289.834 204.772
444 37 3 0.0 96.283 289.906 206.090
445 38 3 0.0 90.626 316.069 185.567
446 38 3 0.0 91.170 315.926 184.193
447 38 3 0.0 91.851 315.783 182.819
448 38 3 0.0 92.396 315.640 181.445
449 38 3 0.0 93.076 315.496 180.071
450 38 3 0.0 93.621 315.353 178.697
451 38 3 0.0 94.301 315.210 177.323
452 38 3 0.0 94.846 315.067 175.949
453 38 3 0.0 95.527 314.924 174.575
454 38 3 0.0 96.071 314.781 173.201
455 38 3 0.0 96.752 314.638 171.827
456 38 3 0.0 97.296 314.495 170.453
457 39 3 0.0 105.577 312.187 184.533
458 39 3 0.0 105.753 310.875 183.759
459 39 3 0.0 105.974 309.562 182.984
460 39 3 0.0 106.150 308.249 182.210
461 39 3 0.0 106.370 306.936 181.436
462 39 3 0.0 106.546 305.623 180.662
463 39 3 0.0 106.766 304.310 179.888
464 39 3 0.0 106.943 302.997 179.114
465 39 3 0.0 107.163 301.684 178.340
466 39 3 0.0 107.339 300.371 177.566
467 39 3 0.0 107.559 299.058 176.791
468 39 3 0.0 107.735 297.745 176.017
469 40 3 0.0 89.861 293.777 186.527
470 40 3 0.0 90.295 293.820 187.967
471 40 3 0.0 90.839 293.862 189.407
472 40 3 0.0 91.273 293.905 190.848
473 40 3 0.0 91.816 293.947 192.288
474 40 3 0.0 92.251 293.990 193.729
475 40 3 0.0 92.794 294.032 195.169
476 40 3 0.0 93.229 294.075 196.609
477 40 3 0.0 93.772 294.117 198.050
478 40 3 0.0 94.206 294.160 199.490
479 40 3 0.0 94.750 294.202 200.931
480 40 3 0.0 95.184 294.244 202.371
481 41 3 0.0 113.218 302.187 182.811
482 41 3 0.0 112.041 302.075 183.253
483 41 3 0.0 110.570 301.962 183.696
484 41 3 0.0 109.393 301.850 184.138
485 41 3 0.0 107.923 301.738 184.581
486 41 3 0.0 106.746 301.626 185.023
487 41 3 0.0 105.275 301.513 185.465
488 41 3 0.0 104.099 301.401 185.908
489 41 3 0.0 102.628 301.289 186.350
490 41 3 0.0 101.451 301.176 186.793
491 41 3 0.0 99.980 301.064 187.235
492 41 3 0.0 98.804 300.952 187.678
493 42 3 0.0 96.573 308.101 172.105
494 42 3 0.0 96.514 307.796 170.598
495 42 3 0.0 96.439 307.490 169.090
496 42 3 0.0 96.380 307.184 167.583
497 42 3 0.0 96.305 306.879 166.075
498 42 3 0.0 96.245 306.573 164.568
499 42 3 0.0 96.171 306.267 163.060
500 42 3 0.0 96.111 305.961 161.553
501 42 3 0.0 96.037 305.656 160.045
502 42 3 0.0 95.977 305.350 158.538
503 42 3 0.0 95.903 305.044 157.030
504 42 3 0.0 95.843 304.739 155.523
505 43 3 0.0 87.203 306.739 168.310
506 43 3 0.0 86.299 305.703 168.160
507 43 3 0.0 85.170 304.667 168.009
508 43 3 0.0 84.266 303.631 167.859
509 43 3 0.0 83.137 302.595 167.708
510 43 3 0.0 82.233 301.559 167.558
511 43 3 0.0 81.104 300.523 167.407
512 43 3 0.0 80.200 299.487 167.257
513 43 3 0.0 79.071 298.451 167.106
514 43 3 0.0 78.167 297.415 166.956
515 43 3 0.0 77.038 296.379 166.805
516 43 3 0.0 76.135 295.342 166.655
517 44 3 0.0 104.334 300.127 183.950
518 44 3 0.0 105.122 300.237 182.772
519 44 3 0.0 106.108 300.347 181.594
520 44 3 0.0 106.897 300.456 180.416
521 44 3 0.0 107.883 300.566 179.238
522 44 3 0.0 108.671 300.675 178.060
523 44 3 0.0 109.657 300.785 176.882
524 44 3 0.0 110.446 300.895 175.704
525 44 3 0.0 111.431 301.004 174.526
526 44 3 0.0 112.220 301.114 173.348
527 44 3 0.0 113.206 301.224 172.170
528 44 3 0.0 113.994 301.333 170.991
529 45 3 0.0 85.135 306.435 179.780
530 45 3 0.0 85.079 306.379 178.242
531 45 3 0.0 85.010 306.324 176.705
532 45 3 0.0 84.954 306.269 175.167
533 45 3 0.0 84.885 306.213 173.630
534 45 3 0.0 84.829 306.158 172.092
535 45 3 0.0 84.760 306.103 170.555
536 45 3 0.0 84.704 306.047 169.018
537 45 3 0.0 84.635 305.992 167.480
538 45 3 0.0 84.579 305.937 165.943
539 45 3 0.0 84.510 305.881 164.405
540 45 3 0.0 84.454 305.826 162.868
541 46 3 0.0 113.181 287.777 171.951
542 46 3 0.0 113.165 288.518 173.300
543 46 3 0.0 113.145 289.259 174.650
544 46 3 0.0 113.128 290.000 176.000
545 46 3 0.0 113.108 290.741 177.350
546 46 3 0.0 113.092 291.483 178.699
547 46 3 0.0 113.071 292.224 180.049
548 46 3 0.0 113.055 292.965 181.399
549 46 3 0.0 113.035 293.706 182.749
550 46 3 0.0 113.018 294.448 184.098
551 46 3 0.0 112.998 295.189 185.448
552 46 3 0.0 112.982 295.930 186.798
553 47 3 0.0 106.766 289.329 162.373
554 47 3 0.0 106.070 288.325 161.594
555 47 3 0.0 105.199 287.321 160.816
556 47 3 0.0 104.503 286.317 160.037
557 47 3 0.0 103.632 285.313 159.259
558 47 3 0.0 102.936 284.309 158.480
559 47 3 0.0 102.066 283.306 157.701
560 47 3 0.0 101.369 282.302 156.923
561 47 3 0.0 100.499 281.298 156.144
562 47 3 0.0 99.803 280.294 155.366
563 47 3 0.0 98.932 279.290 154.587
564 47 3 0.0 98.236 278.286 153.808
565 48 3 0.0 107.855 318.752 172.000
566 48 3 0.0 108.431 318.993 173.340
567 48 3 0.0 109.151 319.235 174.680
568 48 3 0.0 109.727 319.477 176.019
569 48 3 0.0 110.447 319.719 177.359
570 48 3 0.0 111.024 319.960 178.698
571 48 3 0.0 111.744 320.202 180.038
572 48 3 0.0 112.320 320.444 181.378
573 48 3 0.0 113.040 320.686 182.717
574 48 3 0.0 113.616 320.928 184.057
575 48 3 0.0 114.336 321.169 185.396
576 48 3 0.0 114.913 321.411 186.736
577 49 3 0.0 116.107 306.727 180.355
578 49 3 0.0 116.397 306.847 181.847
579 49 3 0.0 116.760 306.966 183.339
580 49 3 0.0 117.051 307.086 184.831
581 49 3 0.0 117.413 307.205 186.323
582 49 3 0.0 117.704 307.325 187.815
583 49 3 0.0 118.067 307.444 189.306
584 49 3 0.0 118.357 307.564 190.798
585 49 3 0.0 118.720 307.683 192.290
586 49 3 0.0 119.010 307.803 193.782
587 49 3 0.0 119.373 307.922 195.274
588 49 3 0.0 119.663 308.042 196.766
589 50 3 0.0 88.006 289.409 165.289
590 50 3 0.0 87.519 288.148 165.929
591 50 3 0.0 86.910 286.886 166.568
592 50 3 0.0 86.423 285.624 167.208
593 50 3 0.0 85.813 284.363 167.847
594 50 3 0.0 85.326 283.101 168.487
595 50 3 0.0 84.717 281.840 169.127
596 50 3 0.0 84.230 280.578 169.766
597 50 3 0.0 83.621 279.317 170.406
598 50 3 0.0 83.134 278.055 171.045
599 50 3 0.0 82.525 276.793 171.685
600 50 3 0.0 82.037 275.532 172.325
601 51 3 0.0 83.078 289.845 189.677
602 51 3 0.0 83.347 288.414 189.216
603 51 3 0.0 83.685 286.984 188.756
604 51 3 0.0 83.954 285.554 188.296
605 51 3 0.0 84.291 284.123 187.835
606 51 3 0.0 84.561 282.693 187.375
607 51 3 0.0 84.898 281.262 186.914
608 51 3 0.0 85.167 279.832 186.454
609 51 3 0.0 85.505 278.402 185.994
610 51 3 0.0 85.774 276.971 185.533
611 51 3 0.0 86.111 275.541 185.073
612 51 3 0.0 86.381 274.111 184.612
613 52 3 0.0 100.655 306.745 179.618
614 52 3 0.0 101.453 307.792 179.088
615 52 3 0.0 102.451 308.839 178.559
616 52 3 0.0 103.249 309.886 178.029
617 52 3 0.0 104.247 310.932 177.500
618 52 3 0.0 105.045 311.979 176.971
619 52 3 0.0 106.043 313.026 176.441
620 52 3 0.0 106.841 314.073 175.912
621 52 3 0.0 107.839 315.119 175.382
622 52 3 0.0 108.637 316.166 174.853
623 52 3 0.0 109.635 317.213 174.323
624 52 3 0.0 110.433 318.260 173.794
625 53 3 0.0 94.705 314.461 164.246
626 53 3 0.0 95.027 315.684 163.401
627 53 3 0.0 95.430 316.906 162.556
628 53 3 0.0 95.752 318.129 161.711
629 53 3 0.0 96.155 319.352 160.865
630 53 3 0.0 96.477 320.574 160.020
631 53 3 0.0 96.880 321.797 159.175
632 53 3 0.0 97.202 323.019 158.329
633 53 3 0.0 97.605 324.242 157.484
634 53 3 0.0 97.928 325.465 156.639
635 53 3 0.0 98.330 326.687 155.793
636 53 3 0.0 98.653 327.910 154.948
637 54 3 0.0 94.293 319.747 195.641
638 54 3 0.0 94.300 319.559 194.113
639 54 3 0.0 94.308 319.372 192.584
640 54 3 0.0 94.314 319.184 191.056
641 54 3 0.0 94.323 318.996 189.527
642 54 3 0.0 94.329 318.808 187.999
643 54 3 0.0 94.338 318.620 186.470
644 54 3 0.0 94.344 318.433 184.942
645 54 3 0.0 94.352 318.245 183.413
646 54 3 0.0 94.359 318.057 181.885
647 54 3 0.0 94.367 317.869 180.356
648 54 3 0.0 94.374 317.681 178.828
649 55 3 0.0 115.308 321.060 166.551
650 55 3 0.0 115.533 322.157 167.595
651 55 3 0.0 115.814 323.253 168.639
652 55 3 0.0 116.039 324.350 169.683
653 55 3 0.0 116.320 325.447 170.726
654 55 3 0.0 116.545 326.544 171.770
655 55 3 0.0 116.826 327.641 172.814
656 55 3 0.0 117.051 328.737 173.858
657 55 3 0.0 117.333 329.834 174.902
658 55 3 0.0 117.557 330.931 175.945
659 55 3 0.0 117.839 332.028 176.989
660 55 3 0.0 118.064 333.125 178.033
661 56 3 0.0 109.008 286.832 190.609
662 56 3 0.0 109.840 286.663 191.732
663 56 3 0.0 110.880 286.493 192.855
664 56 3 0.0 111.713 286.324 193.977
665 56 3 0.0 112.753 286.154 195.100
666 56 3 0.0 113.586 285.984 196.222
667 56 3 0.0 114.626 285.815 197.345
668 56 3 0.0 115.458 285.645 198.468
669 56 3 0.0 116.499 285.476 199.590
670 56 3 0.0 117.331 285.306 200.713
671 56 3 0.0 118.372 285.136 201.836
672 56 3 0.0 119.204 284.967 202.958
673 57 3 0.0 96.074 314.328 189.000
674 57 3 0.0 97.094 314.026 188.189
675 57 3 0.0 98.368 313.725 187.378
676 57 3 0.0 99.387 313.423 186.567
677 57 3 0.0 100.661 313.122 185.757
678 57 3 0.0 101.681 312.820 184.946
679 57 3 0.0 102.955 312.519 184.135
680 57 3 0.0 103.974 312.218 183.325
681 57 3 0.0 105.248 311.916 182.514
682 57 3 0.0 106.267 311.615 181.703
683 57 3 0.0 107.542 311.313 180.892
684 57 3 0.0 108.561 311.012 180.082
685 58 3 0.0 112.274 298.126 178.613
686 58 3 0.0 111.510 298.057 177.407
687 58 3 0.0 110.556 297.989 176.200
688 58 3 0.0 109.792 297.920 174.994
689 58 3 0.0 108.837 297.851 173.788
690 58 3 0.0 108.073 297.782 172.582
691 58 3 0.0 107.118 297.713 171.375
692 58 3 0.0 106.354 297.644 170.169
693 58 3 0.0 105.399 297.575 168.963
694 58 3 0.0 104.635 297.506 167.757
695 58 3 0.0 103.680 297.437 166.550
696 58 3 0.0 102.917 297.368 165.344
697 59 3 0.0 90.079 312.687 165.520
698 59 3 0.0 89.727 312.992 166.963
699 59 3 0.0 89.286 313.298 168.407
700 59 3 0.0 88.934 313.603 169.851
701 59 3 0.0 88.493 313.908 171.295
702 59 3 0.0 88.141 314.214 172.738
703 59 3 0.0 87.701 314.519 174.182
704 59 3 0.0 87.348 314.824 175.626
705 59 3 0.0 86.908 315.129 177.070
706 59 3 0.0 86.555 315.435 178.513
707 59 3 0.0 86.115 315.740 179.957
708 59 3 0.0 85.762 316.045 181.401
709 60 3 0.0 118.318 305.570 186.641
710 60 3 0.0 118.856 306.225 185.420
711 60 3 0.0 119.529 306.880 184.199
712 60 3 0.0 120.067 307.535 182.978
713 60 3 0.0 120.739 308.190 181.758
714 60 3 0.0 121.277 308.845 180.537
715 60 3 0.0 121.950 309.500 179.316
716 60 3 0.0 122.488 310.155 178.095
717 60 3 0.0 123.160 310.809 176.874
718 60 3 0.0 123.698 311.464 175.653
719 60 3 0.0 124.370 312.119 174.433
720 60 3 0.0 124.908 312.774 173.212
721 61 3 0.0 99.722 306.634 183.746
722 61 3 0.0 100.100 306.034 182.409
723 61 3 0.0 100.573 305.434 181.072
724 61 3 0.0 100.950 304.834 179.734
725 61 3 0.0 101.423 304.234 178.397
726 61 3 0.0 101.801 303.634 177.060
727 61 3 0.0 102.273 303.034 175.722
728 61 3 0.0 102.651 302.434 174.385
729 61 3 0.0 103.123 301.834 173.047
730 61 3 0.0 103.501 301.234 171.710
731 61 3 0.0 103.974 300.634 170.373
732 61 3 0.0 104.351 300.034 169.035
733 62 3 0.0 115.911 310.045 185.923
734 62 3 0.0 114.980 309.047 186.060
735 62 3 0.0 113.815 308.049 186.198
736 62 3 0.0 112.884 307.050 186.336
737 62 3 0.0 111.719 306.052 186.474
738 62 3 0.0 110.788 305.054 186.612
739 62 3 0.0 109.623 304.055 186.749
740 62 3 0.0 108.692 303.057 186.887
741 62 3 0.0 107.527 302.059 187.025
742 62 3 0.0 106.596 301.060 187.163
743 62 3 0.0 105.431 300.062 187.300
744 62 3 0.0 104.500 299.064 187.438
745 63 3 0.0 84.176 293.574 173.937
746 63 3 0.0 85.365 293.878 174.197
747 63 3 0.0 86.852 294.183 174.457
748 63 3 0.0 88.042 294.487 174.716
749 63 3 0.0 89.529 294.791 174.976
750 63 3 0.0 90.719 295.096 175.236
751 63 3 0.0 92.206 295.400 175.496
752 63 3 0.0 93.396 295.704 175.755
753 63 3 0.0 94.883 296.008 176.015
754 63 3 0.0 96.073 296.313 176.275
755 63 3 0.0 97.560 296.617 176.535
756 63 3 0.0 98.749 296.921 176.795
757 64 3 0.0 104.989 292.896 161.682
758 64 3 0.0 104.756 292.888 160.170
759 64 3 0.0 104.466 292.879 158.658
760 64 3 0.0 104.233 292.870 157.146
761 64 3 0.0 103.943 292.862 155.633
762 64 3 0.0 103.710 292.853 154.121
763 64 3 0.0 103.420 292.844 152.609
764 64 3 0.0 103.187 292.836 151.096
765 64 3 0.0 102.897 292.827 149.584
766 64 3 0.0 102.664 292.818 148.072
767 64 3 0.0 102.373 292.810 146.559
768 64 3 0.0 102.141 292.801 145.047
769 65 3 0.0 92.824 282.961 176.094
770 65 3 0.0 92.899 283.228 174.580
771 65 3 0.0 92.993 283.495 173.066
772 65 3 0.0 93.068 283.762 171.552
773 65 3 0.0 93.161 284.030 170.039
774 65 3 0.0 93.236 284.297 168.525
775 65 3 0.0 93.330 284.564 167.011
776 65 3 0.0 93.405 284.831 165.497
777 65 3 0.0 93.499 285.098 163.983
778 65 3 0.0 93.574 285.365 162.470
779 65 3 0.0 93.667 285.632 160.956
780 65 3 0.0 93.742 285.899 159.442
781 66 3 0.0 117.503 286.925 163.771
782 66 3 0.0 118.591 287.208 163.107
783 66 3 0.0 119.952 287.492 162.443
784 66 3 0.0 121.040 287.776 161.779
785 66 3 0.0 122.400 288.059 161.115
786 66 3 0.0 123.488 288.343 160.451
787 66 3 0.0 124.849 288.626 159.787
788 66 3 0.0 125.937 288.910 159.123
789 66 3 0.0 127.297 289.194 158.459
790 66 3 0.0 128.385 289.477 157.795
791 66 3 0.0 129.746 289.761 157.131
792 66 3 0.0 130.834 290.044 156.467
793 67 3 0.0 89.533 318.573 186.084
794 67 3 0.0 90.596 318.627 186.861
795 67 3 0.0 91.925 318.681 187.638
796 67 3 0.0 92.988 318.735 188.414
797 67 3 0.0 94.316 318.789 189.191
798 67 3 0.0 95.379 318.843 189.968
799 67 3 0.0 96.708 318.897 190.744
800 67 3 0.0 97.771 318.951 191.521
801 67 3 0.0 99.100 319.004 192.298
802 67 3 0.0 100.163 319.058 193.074
803 67 3 0.0 101.491 319.112 193.851
804 67 3 0.0 102.554 319.166 194.628
805 68 3 0.0 101.478 297.481 190.908
806 68 3 0.0 101.582 297.279 192.429
807 68 3 0.0 101.713 297.077 193.950
808 68 3 0.0 101.817 296.874 195.471
809 68 3 0.0 101.948 296.672 196.992
810 68 3 0.0 102.053 296.469 198.513
811 68 3 0.0 102.183 296.267 200.034
812 68 3 0.0 102.288 296.065 201.555
813 68 3 0.0 102.419 295.862 203.076
814 68 3 0.0 102.523 295.660 204.597
815 68 3 0.0 102.654 295.457 206.118
816 68 3 0.0 102.758 295.255 207.639
817 69 3 0.0 102.325 287.014 169.342
818 69 3 0.0 101.849 288.426 169.505
819 69 3 0.0 101.254 289.837 169.669
820 69 3 0.0 100.778 291.248 169.832
821 69 3 0.0 100.184 292.659 169.995
822 69 3 0.0 99.708 294.070 170.159
823 69 3 0.0 99.113 295.481 170.322
824 69 3 0.0 98.638 296.892 170.486
825 69 3 0.0 98.043 298.303 170.649
826 69 3 0.0 97.567 299.714 170.813
827 69 3 0.0 96.973 301.126 170.976
828 69 3 0.0 96.497 302.537 171.140
829 70 3 0.0 98.501 315.803 176.930
830 70 3 0.0 99.164 316.778 177.786
831 70 3 0.0 99.993 317.754 178.642
832 70 3 0.0 100.656 318.729 179.499
833 70 3 0.0 101.485 319.704 180.355
834 70 3 0.0 102.148 320.680 181.211
835 70 3 0.0 102.977 321.655 182.068
836 70 3 0.0 103.640 322.631 182.924
837 70 3 0.0 104.469 323.606 183.780
838 70 3 0.0 105.132 324.582 184.637
839 70 3 0.0 105.960 325.557 185.493
840 70 3 0.0 106.623 326.532 186.349
841 71 3 0.0 107.781 317.677 163.891
842 71 3 0.0 107.540 317.394 162.407
843 71 3 0.0 107.239 317.111 160.923
844 71 3 0.0 106.999 316.828 159.440
845 71 3 0.0 106.698 316.545 157.956
846 71 3 0.0 106.457 316.262 156.473
847 71 3 0.0 106.157 315.979 154.989
848 71 3 0.0 105.916 315.696 153.505
849 71 3 0.0 105.615 315.413 152.022
850 71 3 0.0 105.375 315.130 150.538
851 71 3 0.0 105.074 314.847 149.055
852 71 3 0.0 104.833 314.564 147.571
853 72 3 0.0 111.352 293.846 194.247
854 72 3 0.0 111.873 294.706 195.345
855 72 3 0.0 112.524 295.567 196.444
856 72 3 0.0 113.044 296.428 197.542
857 72 3 0.0 113.695 297.289 198.641
858 72 3 0.0 114.216 298.149 199.740
859 72 3 0.0 114.867 299.010 200.838
860 72 3 0.0 115.388 299.871 201.937
861 72 3 0.0 116.039 300.732 203.035
862 72 3 0.0 116.560 301.592 204.134
863 72 3 0.0 117.211 302.453 205.233
864 72 3 0.0 117.731 303.314 206.331
865 73 3 0.0 112.232 304.450 163.896
866 73 3 0.0 112.185 304.497 165.434
867 73 3 0.0 112.125 304.544 166.972
868 73 3 0.0 112.078 304.590 168.510
869 73 3 0.0 112.018 304.637 170.048
870 73 3 0.0 111.971 304.684 171.586
871 73 3 0.0 111.911 304.730 173.124
872 73 3 0.0 111.864 304.777 174.663
873 73 3 0.0 111.804 304.824 176.201
874 73 3 0.0 111.757 304.871 177.739
875 73 3 0.0 111.697 304.917 179.277
876 73 3 0.0 111.650 304.964 180.815
877 74 3 0.0 94.846 299.799 178.671
878 74 3 0.0 94.839 300.322 180.120
879 74 3 0.0 94.830 300.845 181.568
880 74 3 0.0 94.823 301.367 183.017
881 74 3 0.0 94.814 301.890 184.466
882 74 3 0.0 94.807 302.412 185.914
883 74 3 0.0 94.798 302.935 187.363
884 74 3 0.0 94.791 303.457 188.812
885 74 3 0.0 94.782 303.980 190.260
886 74 3 0.0 94.775 304.502 191.709
887 74 3 0.0 94.766 305.025 193.157
888 74 3 0.0 94.759 305.548 194.606
889 75 3 0.0 110.732 281.933 194.087
890 75 3 0.0 111.653 281.618 193.115
891 75 3 0.0 112.805 281.302 192.142
892 75 3 0.0 113.726 280.986 191.170
893 75 3 0.0 114.878 280.671 190.198
894 75 3 0.0 115.799 280.355 189.225
895 75 3 0.0 116.951 280.039 188.253
896 75 3 0.0 117.873 279.724 187.281
897 75 3 0.0 119.025 279.408 186.309
898 75 3 0.0 119.946 279.092 185.336
899 75 3 0.0 121.098 278.777 184.364
900 75 3 0.0 122.019 278.461 183.392
901 76 3 0.0 109.136 291.190 184.301
902 76 3 0.0 109.499 291.456 182.854
903 76 3 0.0 109.953 291.722 181.407
904 76 3 0.0 110.316 291.988 179.959
905 76 3 0.0 110.770 292.254 178.512
906 76 3 0.0 111.133 292.520 177.065
907 76 3 0.0 111.587 292.786 175.617
908 76 3 0.0 111.950 293.052 174.170
909 76 3 0.0 112.404 293.318 172.723
910 76 3 0.0 112.768 293.584 171.275
911 76 3 0.0 113.222 293.850 169.828
912 76 3 0.0 113.585 294.116 168.381
913 77 3 0.0 80.987 293.677 190.416
914 77 3 0.0 80.530 292.311 190.839
915 77 3 0.0 79.957 290.945 191.262
916 77 3 0.0 79.500 289.580 191.684
917 77 3 0.0 78.928 288.214 192.107
918 77 3 0.0 78.470 286.848 192.530
919 77 3 0.0 77.898 285.482 192.953
920 77 3 0.0 77.440 284.116 193.376
921 77 3 0.0 76.868 282.750 193.799
922 77 3 0.0 76.410 281.385 194.222
923 77 3 0.0 75.838 280.019 194.645
924 77 3 0.0 75.380 278.653 195.067
925 78 3 0.0 117.197 288.443 194.229
926 78 3 0.0 116.208 288.606 195.133
927 78 3 0.0 114.972 288.769 196.037
928 78 3 0.0 113.983 288.932 196.941
929 78 3 0.0 112.747 289.095 197.845
930 78 3 0.0 111.758 289.257 198.749
931 78 3 0.0 110.522 289.420 199.653
932 78 3 0.0 109.533 289.583 200.557
933 78 3 0.0 108.297 289.746 201.461
934 78 3 0.0 107.308 289.909 202.365
935 78 3 0.0 106.072 290.072 203.269
936 78 3 0.0 105.083 290.235 204.172
937 79 3 0.0 80.120 303.566 185.737
938 79 3 0.0 79.091 304.381 185.968
939 79 3 0.0 77.805 305.196 186.198
940 79 3 0.0 76.776 306.011 186.429
941 79 3 0.0 75.490 306.827 186.660
942 79 3 0.0 74.461 307.642 186.891
943 79 3 0.0 73.175 308.457 187.121
944 79 3 0.0 72.146 309.272 187.352
945 79 3 0.0 70.860 310.087 187.583
946 79 3 0.0 69.832 310.902 187.814
947 79 3 0.0 68.545 311.717 188.044
948 79 3 0.0 67.517 312.533 188.275
949 80 3 0.0 97.465 317.950 190.399
950 80 3 0.0 98.175 319.133 189.971
951 80 3 0.0 99.064 320.315 189.543
952 80 3 0.0 99.775 321.498 189.116
953 80 3 0.0 100.664 322.681 188.688
954 80 3 0.0 101.375 323.863 188.260
955 80 3 0.0 102.263 325.046 187.832
956 80 3 0.0 102.974 326.229 187.404
957 80 3 0.0 103.863 327.411 186.976
958 80 3 0.0 104.574 328.594 186.548
959 80 3 0.0 105.462 329.777 186.120
960 80 3 0.0 106.173 330.960 185.692
961 81 3 0.0 119.898 287.903 163.021
962 81 3 0.0 120.110 289.005 161.978
963 81 3 0.0 120.374 290.106 160.934
964 81 3 0.0 120.585 291.208 159.891
965 81 3 0.0 120.850 292.309 158.848
966 81 3 0.0 121.061 293.411 157.805
967 81 3 0.0 121.326 294.513 156.762
968 81 3 0.0 121.537 295.614 155.719
969 81 3 0.0 121.801 296.716 154.675
970 81 3 0.0 122.013 297.817 153.632
971 81 3 0.0 122.277 298.919 152.589
972 81 3 0.0 122.489 300.020 151.546
973 82 3 0.0 94.267 298.722 192.132
974 82 3 0.0 94.117 299.995 191.285
975 82 3 0.0 93.929 301.267 190.439
976 82 3 0.0 93.778 302.540 189.592
977 82 3 0.0 93.590 303.813 188.746
978 82 3 0.0 93.440 305.085 187.899
979 82 3 0.0 93.252 306.358 187.053
980 82 3 0.0 93.101 307.631 186.206
981 82 3 0.0 92.913 308.903 185.360
982 82 3 0.0 92.763 310.176 184.513
983 82 3 0.0 92.575 311.449 183.667
984 82 3 0.0 92.425 312.721 182.820
985 83 3 0.0 119.425 318.387 167.853
986 83 3 0.0 119.066 316.921 167.993
987 83 3 0.0 118.618 315.454 168.133
988 83 3 0.0 118.259 313.988 168.273
989 83 3 0.0 117.810 312.521 168.412
990 83 3 0.0 117.451 311.054 168.552
991 83 3 0.0 117.003 309.588 168.692
992 83 3 0.0 116.644 308.121 168.832
993 83 3 0.0 116.195 306.655 168.971
994 83 3 0.0 115.836 305.188 169.111
995 83 3 0.0 115.388 303.722 169.251
996 83 3 0.0 115.029 302.255 169.391
997 84 3 0.0 103.663 317.166 166.503
998 84 3 0.0 104.502 316.098 166.866
999 84 3 0.0 105.551 315.030 167.229
1000 84 3 0.0 106.389 313.962 167.591
1001 84 3 0.0 107.438 312.894 167.954
1002 84 3 0.0 108.277 311.826 168.316
1003 84 3 0.0 109.326 310.758 168.679
1004 84 3 0.0 110.165 309.691 169.041
1005 84 3 0.0 111.213 308.623 169.404
1006 84 3 0.0 112.052 307.555 169.767
1007 84 3 0.0 113.101 306.487 170.129
1008 84 3 0.0 113.940 305.419 170.492
1009 85 3 0.0 98.438 307.114 188.831
1010 85 3 0.0 97.669 307.212 190.029
1011 85 3 0.0 96.707 307.310 191.228
1012 85 3 0.0 95.937 307.408 192.427
1013 85 3 0.0 94.975 307.506 193.625
1014 85 3 0.0 94.205 307.605 194.824
1015 85 3 0.0 93.243 307.703 196.022
1016 85 3 0.0 92.474 307.801 197.221
1017 85 3 0.0 91.512 307.899 198.419
1018 85 3 0.0 90.742 307.997 199.618
1019 85 3 0.0 89.780 308.095 200.816
1020 85 3 0.0 89.011 308.194 202.015
1021 86 3 0.0 85.774 296.253 172.270
1022 86 3 0.0 86.281 296.792 173.566
1023 86 3 0.0 86.914 297.331 174.862
1024 86 3 0.0 87.421 297.870 176.158
1025 86 3 0.0 88.055 298.409 177.454
1026 86 3 0.0 88.562 298.948 178.750
1027 86 3 0.0 89.196 299.487 180.046
1028 86 3 0.0 89.702 300.026 181.342
1029 86 3 0.0 90.336 300.565 182.638
1030 86 3 0.0 90.843 301.104 183.934
1031 86 3 0.0 91.477 301.643 185.230
1032 86 3 0.0 91.984 302.182 186.526
1033 87 3 0.0 110.132 283.438 183.045
1034 87 3 0.0 110.800 284.408 183.901
1035 87 3 0.0 111.636 285.377 184.758
1036 87 3 0.0 112.304 286.347 185.614
1037 87 3 0.0 113.140 287.316 186.471
1038 87 3 0.0 113.809 288.285 187.327
1039 87 3 0.0 114.645 289.255 188.183
1040 87 3 0.0 115.313 290.224 189.040
1041 87 3 0.0 116.149 291.194 189.896
1042 87 3 0.0 116.818 292.163 190.752
1043 87 3 0.0 117.653 293.132 191.609
1044 87 3 0.0 118.322 294.102 192.465
1045 88 3 0.0 106.486 284.180 193.613
1046 88 3 0.0 106.883 285.063 194.773
1047 88 3 0.0 107.379 285.946 195.933
1048 88 3 0.0 107.776 286.829 197.093
1049 88 3 0.0 108.272 287.712 198.253
1050 88 3 0.0 108.668 288.595 199.413
1051 88 3 0.0 109.164 289.478 200.573
1052 88 3 0.0 109.561 290.361 201.734
1053 88 3 0.0 110.057 291.244 202.894
1054 88 3 0.0 110.454 292.127 204.054
1055 88 3 0.0 110.950 293.009 205.214
1056 88 3 0.0 111.347 293.892 206.374
1057 89 3 0.0 79.066 281.700 164.641
1058 89 3 0.0 78.121 282.605 165.036
1059 89 3 0.0 76.940 283.510 165.431
1060 89 3 0.0 75.995 284.416 165.826
1061 89 3 0.0 74.813 285.321 166.221
1062 89 3 0.0 73.868 286.227 166.616
1063 89 3 0.0 72.687 287.132 167.011
1064 89 3 0.0 71.742 288.038 167.406
1065 89 3 0.0 70.560 288.943 167.801
1066 89 3 0.0 69.615 289.849 168.196
1067 89 3 0.0 68.434 290.754 168.591
1068 89 3 0.0 67.489 291.659 168.986
1069 90 3 0.0 101.742 296.431 185.015
1070 90 3 0.0 101.858 296.560 186.542
1071 90 3 0.0 102.002 296.689 188.070
1072 90 3 0.0 102.117 296.818 189.598
1073 90 3 0.0 102.262 296.946 191.126
1074 90 3 0.0 102.377 297.075 192.654
1075 90 3 0.0 102.522 297.204 194.181
1076 90 3 0.0 102.637 297.333 195.709
1077 90 3 0.0 102.781 297.461 197.237
1078 90 3 0.0 102.897 297.590 198.765
1079 90 3 0.0 103.041 297.719 200.293
1080 90 3 0.0 103.157 297.848 201.820
1081 91 3 0.0 112.618 308.327 158.993
1082 91 3 0.0 111.818 308.923 157.984
1083 91 3 0.0 110.819 309.519 156.976
1084 91 3 0.0 110.019 310.114 155.967
1085 91 3 0.0 109.019 310.710 154.959
1086 91 3 0.0 108.219 311.306 153.950
1087 91 3 0.0 107.219 311.902 152.942
1088 91 3 0.0 106.419 312.497 151.933
1089 91 3 0.0 105.420 313.093 150.925
1090 91 3 0.0 104.620 313.689 149.916
1091 91 3 0.0 103.620 314.285 148.908
1092 91 3 0.0 102.820 314.880 147.899
1093 92 3 0.0 93.270 309.786 194.947
1094 92 3 0.0 93.270 309.788 193.407
1095 92 3 0.0 93.271 309.789 191.867
1096 92 3 0.0 93.272 309.791 190.327
1097 92 3 0.0 93.273 309.793 188.787
1098 92 3 0.0 93.274 309.794 187.247
1099 92 3 0.0 93.274 309.796 185.707
1100 92 3 0.0 93.275 309.797 184.167
1101 92 3 0.0 93.276 309.799 182.627
1102 92 3 0.0 93.277 309.801 181.087
1103 92 3 0.0 93.278 309.802 179.547
1104 92 3 0.0 93.278 309.804 178.007
1105 93 3 0.0 90.336 289.010 169.843
1106 93 3 0.0 89.673 288.637 171.086
1107 93 3 0.0 88.845 288.263 172.329
1108 93 3 0.0 88.182 287.890 173.573
1109 93 3 0.0 87.354 287.516 174.816
1110 93 3 0.0 86.691 287.143 176.060
1111 93 3 0.0 85.863 286.769 177.303
1112 93 3 0.0 85.200 286.396 178.546
1113 93 3 0.0 84.372 286.023 179.790
1114 93 3 0.0 83.709 285.649 181.033
1115 93 3 0.0 82.881 285.276 182.277
1116 93 3 0.0 82.218 284.902 183.520
1117 94 3 0.0 106.256 289.909 187.659
1118 94 3 0.0 105.057 289.581 187.522
1119 94 3 0.0 103.559 289.253 187.386
1120 94 3 0.0 102.360 288.924 187.250
1121 94 3 0.0 100.862 288.596 187.113
1122 94 3 0.0 99.663 288.268 186.977
1123 94 3 0.0 98.165 287.939 186.841
1124 94 3 0.0 96.966 287.611 186.704
1125 94 3 0.0 95.467 287.283 186.568
1126 94 3 0.0 94.269 286.954 186.432
1127 94 3 0.0 92.770 286.626 186.296
1128 94 3 0.0 91.572 286.298 186.159
1129 95 3 0.0 112.332 292.019 170.306
1130 95 3 0.0 111.378 292.240 171.255
1131 95 3 0.0 110.185 292.462 172.203
1132 95 3 0.0 109.230 292.684 173.152
1133 95 3 0.0 108.038 292.906 174.100
1134 95 3 0.0 107.083 293.127 175.049
1135 95 3 0.0 105.891 293.349 175.997
1136 95 3 0.0 104.936 293.571 176.946
1137 95 3 0.0 103.743 293.793 177.894
1138 95 3 0.0 102.789 294.014 178.842
1139 95 3 0.0 101.596 294.236 179.791
1140 95 3 0.0 100.642 294.458 180.739
1141 96 3 0.0 110.163 315.661 162.422
1142 96 3 0.0 109.318 315.128 163.406
1143 96 3 0.0 108.260 314.595 164.391
1144 96 3 0.0 107.414 314.062 165.376
1145 96 3 0.0 106.357 313.529 166.360
1146 96 3 0.0 105.511 312.996 167.345
1147 96 3 0.0 104.454 312.463 168.330
1148 96 3 0.0 103.608 311.930 169.314
1149 96 3 0.0 102.551 311.396 170.299
1150 96 3 0.0 101.705 310.863 171.284
1151 96 3 0.0 100.648 310.330 172.268
1152 96 3 0.0 99.802 309.797 173.253
1153 97 3 0.0 83.887 297.580 188.006
1154 97 3 0.0 84.183 298.369 189.276
1155 97 3 0.0 84.553 299.159 190.545
1156 97 3 0.0 84.850 299.948 191.815
1157 97 3 0.0 85.220 300.737 193.085
1158 97 3 0.0 85.516 301.526 194.354
1159 97 3 0.0 85.886 302.315 195.624
1160 97 3 0.0 86.182 303.104 196.893
1161 97 3 0.0 86.552 303.894 198.163
1162 97 3 0.0 86.849 304.683 199.432
1163 97 3 0.0 87.219 305.472 200.702
1164 97 3 0.0 87.515 306.261 201.971
1165 98 3 0.0 119.849 283.616 164.963
1166 98 3 0.0 120.186 283.197 166.383
1167 98 3 0.0 120.607 282.778 167.804
1168 98 3 0.0 120.944 282.359 169.225
1169 98 3 0.0 121.366 281.940 170.646
1170 98 3 0.0 121.703 281.521 172.066
1171 98 3 0.0 122.124 281.102 173.487
1172 98 3 0.0 122.461 280.683 174.908
1173 98 3 0.0 122.883 280.264 176.329
1174 98 3 0.0 123.220 279.845 177.749
1175 98 3 0.0 123.641 279.426 179.170
1176 98 3 0.0 123.978 279.007 180.591
1177 99 3 0.0 107.033 285.049 186.879
1178 99 3 0.0 107.021 284.953 185.342
1179 99 3 0.0 107.006 284.858 183.805
1180 99 3 0.0 106.994 284.762 182.268
1181 99 3 0.0 106.978 284.666 180.731
1182 99 3 0.0 106.966 284.571 179.194
1183 99 3 0.0 106.951 284.475 177.657
1184 99 3 0.0 106.939 284.379 176.120
1185 99 3 0.0 106.924 284.284 174.583
1186 99 3 0.0 106.912 284.188 173.046
1187 99 3 0.0 106.897 284.092 171.509
1188 99 3 0.0 106.885 283.996 169.972
1189 100 3 0.0 85.185 316.372 164.688
1190 100 3 0.0 85.248 316.449 163.151
1191 100 3 0.0 85.326 316.526 161.615
1192 100 3 0.0 85.389 316.603 160.079
1193 100 3 0.0 85.467 316.680 158.543
1194 100 3 0.0 85.530 316.756 157.007
1195 100 3 0.0 85.608 316.833 155.471
1196 100 3 0.0 85.671 316.910 153.935
1197 100 3 0.0 85.749 316.987 152.399
1198 100 3 0.0 85.812 317.064 150.863
1199 100 3 0.0 85.890 317.141 149.327
1200 100 3 0.0 85.953 317.218 147.791

Bonds

1 1 1 2
2 1 2 3
3 1 3 4
4 1 4 5
5 1 5 6
6 1 6 7
7 1 7 8
8 1 8 9
9 1 9 10
10 1 10 11
11 1 11 12
12 1 13 14
13 1 14 15
14 1 15 16
15 1 16 17
16 1 17 18
17 1 18 19
18 1 19 20
19 1 20 21
20 1 21 22
21 1 22 23
22 1 23 24
23 1 25 26
24 1 26 27
25 1 27 28
26 1 28 29
27 1 29 30
28 1 30 31
29 1 31 32
30 1 32 33
31 1 33 34
32 1 34 35
33 1 35 36
34 1 37 38
35 1 38 39
36 1 39 40
37 1 40 41
38 1 41 42
39 1 42 43
40 1 43 44
41 1 44 45
42 1 45 46
43 1 46 47
44 1 47 48
45 1 49 50
46 1 50 51
47 1 51 52
48 1 52 53
49 1 53 54
50 1 54 55
51 1 55 56
52 1 56 57
53 1 57 58
54 1 58 59
55 1 59 60
56 1 61 62
57 1 62 63
58 1 63 64
59 1 64 65
60 1 65 66
61 1 66 67
62 1 67 68
63 1 68 69
64 1 69 70
65 1 70 71
66 1 71 72
67 1 73 74
68 1 74 75
69 1 75 76
70 1 76 77
71 1 77 78
72 1 78 79
73 1 79 80
74 1 80 81
75 1 81 82
76 1 82 83
77 1 83 84
78 1 85 86
79 1 86 87
80 1 87 88
81 1 88 89
82 1 89 90
83 1 90 91
84 1 91 92
85 1 92 93
86 1 93 94
87 1 94 95
88 1 95 96
89 1 97 98
90 1 98 99
91 1 99 100
92 1 100 101
93 1 101 102
94 1 102 103
95 1 103 104
96 1 104 105
97 1 105 106
98 1 106 107
99 1 107 108
100 1 109 110
101 1 110 111
102 1 111 112
103 1 112 113
104 1 113 114
105 1 114 115
106 1 115 116
107 1 116 117
108 1 117 118
109 1 118 119
110 1 119 120
111 1 121 122
112 1 122 123
113 1 123 124
114 1 124 125
115 1 125 126
116 1 126 127
117 1 127 128
118 1 128 129
119 1 129 130
120 1 130 131
121 1 131 132
122 1 133 134
123 1 134 135
124 1 135 136
125 1 136 137
126 1 137 138
127 1 138 139
128 1 139 140
129 1 140 141
130 1 141 142
131 1 142 143
132 1 143 144
133 1 145 146
134 1 146 147
135 1 147 148
136 1 148 149
137 1 149 150
138 1 150 151
139 1 151 152
140 1 152 153
141 1 153 154
142 1 154 155
143 1 155 156
144 1 157 158
145 1 158 159
146 1 159 160
147 1 160 161
148 1 161 162
149 1 162 163
150 1 163 164
151 1 164 165
152 1 165 166
153 1 166 167
154 1 167 168
155 1 169 170
156 1 170 171
157 1 171 172
158 1 172 173
159 1 173 174
160 1 174 175
161 1 175 176
162 1 176 177
163 1 177 178
164 1 178 179
165 1 179 180
166 1 181 182
167 1 182 183
168 1 183 184
169 1 184 185
170 1 185 186
171 1 186 187
172 1 187 188
173 1 188 189
174 1 189 190
175 1 190 191
176 1 191 192
177 1 193 194
178 1 194 195
179 1 195 196
180 1 196 197
181 1 197 198
182 1 198 199
183 1 199 200
184 1 200 201
185 1 201 202
186 1 202 203
187 1 203 204
188 1 205 206
189 1 206 207
190 1 207 208
191 1 208 209
192 1 209 210
193 1 210 211
194 1 211 212
195 1 212 213
196 1 213 214
197 1 214 215
198 1 215 216
199 1 217 218
200 1 218 219
201 1 219 220
202 1 220 221
203 1 221 222
204 1 222 223
205 1 223 224
206 1 224 225
207 1 225 226
208 1 226 227
209 1 227 228
210 1 229 230
211 1 230 231
212 1 231 232
213 1 232 233
214 1 233 234
215 1 234 235
216 1 235 236
217 1 236 237
218 1 237 238
219 1 238 239
220 1 239 240
221 1 241 242
222 1 242 243
223 1 243 244
224 1 244 245
225 1 245 246
226 1 246 247
227 1 247 248
228 1 248 249
229 1 249 250
230 1 250 251
231 1 251 252
232 1 253 254
233 1 254 255
234 1 255 256
235 1 256 257
236 1 257 258
237 1 258 259
238 1 259 260
239 1 260 261
240 1 261 262
241 1 262 263
242 1 263 264
243 1 265 266
244 1 266 267
245 1 267 268
246 1 268 269
247 1 269 270
248 1 270 271
249 1 271 272
250 1 272 273
251 1 273 274
252 1 274 275
253 1 275 276
254 1 277 278
255 1 278 279
256 1 279 280
257 1 280 281
258 1 281 282
259 1 282 283
260 1 283 284
261 1 284 285
262 1 285 286
263 1 286 287
264 1 287 288
265 1 289 290
266 1 290 291
267 1 291 292
268 1 292 293
269 1 293 294
270 1 294 295
271 1 295 296
272 1 296 297
273 1 297 298
274 1 298 299
275 1 299 300
276 1 301 302
277 1 302 303
278 1 303 304
279 1 304 305
280 1 305 306
281 1 306 307
282 1 307 308
283 1 308 309
284 1 309 310
285 1 310 311
286 1 311 312
287 1 313 314
288 1 314 315
289 1 315 316
290 1 316 317
291 1 317 318
292 1 318 319
293 1 319 320
294 1 320 321
295 1 321 322
296 1 322 323
297 1 323 324
298 1 325 326
299 1 326 327
300 1 327 328
301 1 328 329
302 1 329 330
303 1 330 331
304 1 331 332
305 1 332 333
306 1 333 334
307 1 334 335
308 1 335 336
309 1 337 338
310 1 338 339
311 1 339 340
312 1 340 341
313 1 341 342
314 1 342 343
315 1 343 344
316 1 344 345
317 1 345 346
318 1 346 347
319 1 347 348
320 1 349 350
321 1 350 351
322 1 351 352
323 1 352 353
324 1 353 354
325 1 354 355
326 1 355 356
327 1 356 357
328 1 357 358
329 1 358 359
330 1 359 360
331 1 361 362
332 1 362 363
333 1 363 364
334 1 364 365
335 1 365 366
336 1 366 367
337 1 367 368
338 1 368 369
339 1 369 370
340 1 370 371
341 1 371 372
342 1 373 374
343 1 374 375
344 1 375 376
345 1 376 377
346 1 377 378
347 1 378 379
348 1 379 380
349 1 380 381
350 1 381 382
351 1 382 383
352 1 383 384
353 1 385 386
354 1 386 387
355 1 387 388
356 1 388 389
357 1 389 390
358 1 390 391
359 1 391 392
360 1 392 393
361 1 393 394
362 1 394 395
363 1 395 396
364 1 397 398
365 1 398 399
366 1 399 400
367 1 400 401
368 1 401 402
369 1 402 403
370 1 403 404
371 1 404 405
372 1 405 406
373 1 406 407
374 1 407 408
375 1 409 410
376 1 410 411
377 1 411 412
378 1 412 413
379 1 413 414
380 1 414 415
381 1 415 416
382 1 416 417
383 1 417 418
384 1 418 419
385 1 419 420
386 1 421 422
387 1 422 423
388 1 423 424
389 1 424 425
390 1 425 426
391 1 426 427
392 1 427 428
393 1 428 429
394 1 429 430
395 1 430 431
396 1 431 432
397 1 433 434
398 1 434 435
399 1 435 436
400 1 436 437
401 1 437 438
402 1 438 439
403 1 439 440
404 1 440 441
405 1 441 442
406 1 442 443
407 1 443 444
408 1 445 446
409 1 446 447
410 1 447 448
411 1 448 449
412 1 449 450
413 1 450 451
414 1 451 452
415 1 452 453
416 1 453 454
417 1 454 455
418 1 455 456
419 1 457 458
420 1 458 459
421 1 459 460
422 1 460 461
423 1 461 462
424 1 462 463
425 1 463 464
426 1 464 465
427 1 465 466
428 1 466 467
429 1 467 468
430 1 469 470
431 1 470 471
432 1 471 472
433 1 472 473
434 1 473 474
435 1 474 475
436 1 475 476
437 1 476 477
438 1 477 478
439 1 478 479
440 1 479 480
441 1 481 482
442 1 482 483
443 1 483 484
444 1 484 485
445 1 485 486
446 1 486 487
447 1 487 488
448 1 488 489
449 1 489 490
450 1 490 491
451 1 491 492
452 1 493 494
453 1 494 495
454 1 495 496
455 1 496 497
456 1 497 498
457 1 498 499
458 1 499 500
459 1 500 501
460 1 501 502
461 1 502 503
462 1 503 504
463 1 505 506
464 1 506 507
465 1 507 508
466 1 508 509
467 1 509 510
468 1 510 511
469 1 511 512
470 1 512 513
471 1 513 514
472 1 514 515
473 1 515 516
474 1 517 518
475 1 518 519
476 1 519 520
477 1 520 521
478 1 521 522
479 1 522 523
480 1 523 524
481 1 524 525
482 1 525 526
483 1 526 527
484 1 527 528
485 1 529 530
486 1 530 531
487 1 531 532
488 1 532 533
489 1 533 534
490 1 534 535
491 1 535 536
492 1 536 537
493 1 537 538
494 1 538 539
495 1 539 540
496 1 541 542
497 1 542 543
498 1 543 544
499 1 544 545
500 1 545 546
501 1 546 547
502 1 547 548
503 1 548 549
504 1 549 550
505 1 550 551
506 1 551 552
507 1 553 554
508 1 554 555
509 1 555 556
510 1 556 557
511 1 557 558
512 1 558 559
513 1 559 560
514 1 560 561
515 1 561 562
516 1 562 563
517 1 563 564
518 1 565 566
519 1 566 567
520 1 567 568
521 1 568 569
522 1 569 570
523 1 570 571
524 1 571 572
525 1 572 573
526 1 573 574
527 1 574 575
528 1 575 576
529 1 577 578
530 1 578 579
531 1 579 580
532 1 580 581
533 1 581 582
534 1 582 583
535 1 583 584
536 1 584 585
537 1 585 586
538 1 586 587
539 1 587 588
540 1 589 590
541 1 590 591
542 1 591 592
543 1 592 593
544 1 593 594
545 1 594 595
546 1 595 596
547 1 596 597
548 1 597 598
549 1 598 599
550 1 599 600
551 1 601 602
552 1 602 603
553 1 603 604
554 1 604 605
555 1 605 606
556 1 606 607
557 1 607 608
558 1 608 609
559 1 609 610
560 1 610 611
561 1 611 612
562 1 613 614
563 1 614 615
564 1 615 616
565 1 616 617
566 1 617 618
567 1 618 619
568 1 619 620
569 1 620 621
570 1 621 622
571 1 622 623
572 1 623 624
573 1 625 626
574 1 626 627
575 1 627 628
576 1 628 629
577 1 629 630
578 1 630 631
579 1 631 632
580 1 632 633
581 1 633 634
582 1 634 635
583 1 635 636
584 1 637 638
585 1 638 639
586 1 639 640
587 1 640 641
588 1 641 642
589 1 642 643
590 1 643 644
591 1 644 645
592 1 645 646
593 1 646 647
594 1 647 648
595 1 649 650
596 1 650 651
597 1 651 652
598 1 652 653
599 1 653 654
600 1 654 655
601 1 655 656
602 1 656 657
603 1 657 658
604 1 658 659
605 1 659 660
606 1 661 662
607 1 662 663
608 1 663 664
609 1 664 665
610 1 665 666
611 1 666 667
612 1 667 668
613 1 668 669
614 1 669 670
615 1 670 671
616 1 671 672
617 1 673 674
618 1 674 675
619 1 675 676
620 1 676 677
621 1 677 678
622 1 678 679
623 1 679 680
624 1 680 681
625 1 681 682
626 1 682 683
627 1 683 684
628 1 685 686
629 1 686 687
630 1 687 688
631 1 688 689
632 1 689 690
633 1 690 691
634 1 691 692
635 1 692 693
636 1 693 694
637 1 694 695
638 1 695 696
639 1 697 698
640 1 698 699
641 1 699 700
642 1 700 701
643 1 701 702
644 1 702 703
645 1 703 704
646 1 704 705
647 1 705 706
648 1 706 707
649 1 707 708
650 1 709 710
651 1 710 711
652 1 711 712
653 1 712 713
654 1 713 714
655 1 714 715
656 1 715 716
657 1 716 717
658 1 717 718
659 1 718 719
660 1 719 720
661 1 721 722
662 1 722 723
663 1 723 724
664 1 724 725
665 1 725 726
666 1 726 727
667 1 727 728
668 1 728 729
669 1 729 730
670 1 730 731
671 1 731 732
672 1 733 734
673 1 734 735
674 1 735 736
675 1 736 737
676 1 737 738
677 1 738 739
678 1 739 740
679 1 740 741
680 1 741 742
681 1 742 743
682 1 743 744
683 1 745 746
684 1 746 747
685 1 747 748
686 1 748 749
687 1 749 750
688 1 750 751
689 1 751 752
690 1 752 753
691 1 753 754
692 1 754 755
693 1 755 756
694 1 757 758
695 1 758 759
696 1 759 760
697 1 760 761
698 1 761 762
699 1 762 763
700 1 763 764
701 1 764 765
702 1 765 766
703 1 766 767
704 1 767 768
705 1 769 770
706 1 770 771
707 1 771 772
708 1 772 773
709 1 773 774
710 1 774 775
711 1 775 776
712 1 776 777
713 1 777 778
714 1 778 779
715 1 779 780
716 1 781 782
717 1 782 783
718 1 783 784
719 1 784 785
720 1 785 786
721 1 786 787
722 1 787 788
723 1 788 789
724 1 789 790
725 1 790 791
726 1 791 792
727 1 793 794
728 1 794 795
729 1 795 796
730 1 796 797
731 1 797 798
732 1 798 799
733 1 799 800
734 1 800 801
735 1 801 802
736 1 802 803
737 1 803 804
738 1 805 806
739 1 806 807
740 1 807 808
741 1 808 809
742 1 809 810
743 1 810 811
744 1 811 812
745 1 812 813
746 1 813 814
747 1 814 815
748 1 815 816
749 1 817 818
750 1 818 819
751 1 819 820
752 1 820 821
753 1 821 822
754 1 822 823
755 1 823 824
756 1 824 825
757 1 825 826
758 1 826 827
759 1 827 828
760 1 829 830
761 1 830 831
762 1 831 832
763 1 832 833
764 1 833 834
765 1 834 835
766 1 835 836
767 1 836 837
768 1 837 838
769 1 838 839
770 1 839 840
771 1 841 842
772 1 842 843
773 1 843 844
774 1 844 845
775 1 845 846
776 1 846 847
777 1 847 848
778 1 848 849
779 1 849 850
780 1 850 851
781 1 851 852
782 1 853 854
783 1 854 855
784 1 855 856
785 1 856 857
786 1 857 858
787 1 858 859
788 1 859 860
789 1 860 861
790 1 861 862
791 1 862 863
792 1 863 864
793 1 865 866
794 1 866 867
795 1 867 868
796 1 868 869
797 1 869 870
798 1 870 871
799 1 871 872
800 1 872 873
801 1 873 874
802 1 874 875
803 1 875 876
804 1 877 878
805 1 878 879
806 1 879 880
807 1 880 881
808 1 881 882
809 1 882 883
810 1 883 884
811 1 884 885
812 1 885 886
813 1 886 887
814 1 887 888
815 1 889 890
816 1 890 891
817 1 891 892
818 1 892 893
819 1 893 894
820 1 894 895
821 1 895 896
822 1 896 897
823 1 897 898
824 1 898 899
825 1 899 900
826 1 901 902
827 1 902 903
828 1 903 904
829 1 904 905
830 1 905 906
831 1 906 907
832 1 907 908
833 1 908 909
834 1 909 910
835 1 910 911
836 1 911 912
837 1 913 914
838 1 914 915
839 1 915 916
840 1 916 917
841 1 917 918
842 1 918 919
843 1 919 920
844 1 920 921
845 1 921 922
846 1 922 923
847 1 923 924
848 1 925 926
849 1 926 927
850 1 927 928
851 1 928 929
852 1 929 930
853 1 930 931
854 1 931 932
855 1 932 933
856 1 933 934
857 1 934 935
858 1 935 936
859 1 937 938
860 1 938 939
861 1 939 940
862 1 940 941
863 1 941 942
864 1 942 943
865 1 943 944
866 1 944 945
867 1 945 946
868 1 946 947
869 1 947 948
870 1 949 950
871 1 950 951
872 1 951 952
873 1 952 953
874 1 953 954
875 1 954 955
876 1 955 956
877 1 956 957
878 1 957 958
879 1 958 959
880 1 959 960
881 1 961 962
882 1 962 963
883 1 963 964
884 1 964 965
885 1 965 966
886 1 966 967
887 1 967 968
888 1 968 969
889 1 969 970
890 1 970 971
891 1 971 972
892 1 973 974
893 1 974 975
894 1 975 976
895 1 976 977
896 1 977 978
897 1 978 979
898 1 979 980
899 1 980 981
900 1 981 982
901 1 982 983
902 1 983 984
903 1 985 986
904 1 986 987
905 1 987 988
906 1 988 989
907 1 989 990
908 1 990 991
909 1 991 992
910 1 992 993
911 1 993 994
912 1 994 995
913 1 995 996
914 1 997 998
915 1 998 999
916 1 999 1000
917 1 1000 1001
918 1 1001 1002
919 1 1002 1003
920 1 1003 1004
921 1 1004 1005
922 1 1005 1006
923 1 1006 1007
924 1 1007 1008
925 1 1009 1010
926 1 1010 1011
927 1 1011 1012
928 1 1012 1013
929 1 1013 1014
930 1 1014 1015
931 1 1015 1016
932 1 1016 1017
933 1 1017 1018
934 1 1018 1019
935 1 1019 1020
936 1 1021 1022
937 1 1022 1023
938 1 1023 1024
939 1 1024 1025
940 1 1025 1026
941 1 1026 1027
942 1 1027 1028
943 1 1028 1029
944 1 1029 1030
945 1 1030 1031
946 1 1031 1032
947 1 1033 1034
948 1 1034 1035
949 1 1035 1036
950 1 1036 1037
951 1 1037 1038
952 1 1038 1039
953 1 1039 1040
954 1 1040 1041
955 1 1041 1042
956 1 1042 1043
957 1 1043 1044
958 1 1045 1046
959 1 1046 1047
960 1 1047 1048
961 1 1048 1049
962 1 1049 1050
963 1 1050 1051
964 1 1051 1052
965 1 1052 1053
966 1 1053 1054
967 1 1054 1055
968 1 1055 1056
969 1 1057 1058
970 1 1058 1059
971 1 1059 1060
972 1 1060 1061
973 1 1061 1062
974 1 1062 1063
975 1 1063 1064
976 1 1064 1065
977 1 1065 1066
978 1 1066 1067
979 1 1067 1068
980 1 1069 1070
981 1 1070 1071
982 1 1071 1072
983 1 1072 1073
984 1 1073 1074
985 1 1074 1075
986 1 1075 1076
987 1 1076 1077
988 1 1077 1078
989 1 1078 1079
990 1 1079 1080
991 1 1081 1082
992 1 1082 1083
993 1 1083 1084
994 1 1084 1085
995 1 1085 1086
996 1 1086 1087
997 1 1087 1088
998 1 1088 1089
999 1 1089 1090
1000 1 1090 1091
1001 1 1091 1092
1002 1 1093 1094
1003 1 1094 1095
1004 1 1095 1096
1005 1 1096 1097
1006 1 1097 1098
1007 1 1098 1099
1008 1 1099 1100
1009 1 1100 1101
1010 1 1101 1102
1011 1 1102 1103
1012 1 1103 1104
1013 1 1105 1106
1014 1 1106 1107
1015 1 1107 1108
1016 1 1108 1109
1017 1 1109 1110
1018 1 1110 1111
1019 1 1111 1112
1020 1 1112 1113
1021 1 1113 1114
1022 1 1114 1115
1023 1 1115 1116
1024 1 1117 1118
1025 1 1118 1119
1026 1 1119 1120
1027 1 1120 1121
1028 1 1121 1122
1029 1 1122 1123
1030 1 1123 1124
1031 1 1124 1125
1032 1 1125 1126
1033 1 1126 1127
1034 1 1127 1128
1035 1 1129 1130
1036 1 1130 1131
1037 1 1131 1132
1038 1 1132 1133
1039 1 1133 1134
1040 1 1134 1135
1041 1 1135 1136
1042 1 1136 1137
1043 1 1137 1138
1044 1 1138 1139
1045 1 1139 1140
1046 1 1141 1142
1047 1 1142 1143
1048 1 1143 1144
1049 1 1144 1145
1050 1 1145 1146
1051 1 1146 1147
1052 1 1147 1148
1053 1 1148 1149
1054 1 1149 1150
1055 1 1150 1151
1056 1 1151 1152
1057 1 1153 1154
1058 1 1154 1155
1059 1 1155 1156
1060 1 1156 1157
1061 1 1157 1158
1062 1 1158 1159
1063 1 1159 1160
1064 1 1160 1161
1065 1 1161 1162
1066 1 1162 1163
1067 1 1163 1164
1068 1 1165 1166
1069 1 1166 1167
1070 1 1167 1168
1071 1 1168 1169
1072 1 1169 1170
1073 1 1170 1171
1074 1 1171 1172
1075 1 1172 1173
1076 1 1173 1174
1077 1 1174 1175
1078 1 1175 1176
1079 1 1177 1178
1080 1 1178 1179
1081 1 1179 1180
1082 1 1180 1181
1083 1 1181 1182
1084 1 1182 1183
1085 1 1183 1184
1086 1 1184 1185
1087 1 1185 1186
1088 1 1186 1187
1089 1 1187 1188
1090 1 1189 1190
1091 1 1190 1191
1092 1 1191 1192
1093 1 1192 1193
1094 1 1193 1194
1095 1 1194 1195
1096 1 1195 1196
1097 1 1196 1197
1098 1 1197 1198
1099 1 1198 1199
1100 1 1199 1200
